Minimize
	value: tt

Subject to
tt + 2000 s_1_1 > 0
tt - t_1_1 - 2000.000000 s_1_1 > -1994.650810
tt + 2000 s_2_1 > 0
tt - t_2_1 - 2000.000000 s_2_1 > -1989.268500
tt + 2000 s_1_2 > 0
tt - t_1_2 - 2000.000000 s_1_2 > -1996.831340
tt + 2000 s_2_2 > 0
tt - t_2_2 - 2000.000000 s_2_2 > -1993.806300
tt + 2000 s_1_3 > 0
tt - t_1_3 - 2000.000000 s_1_3 > -1998.222400
tt + 2000 s_2_3 > 0
tt - t_2_3 - 2000.000000 s_2_3 > -1996.531200
tt + 2000 s_1_4 > 0
tt - t_1_4 - 2000.000000 s_1_4 > -1989.066990
tt + 2000 s_2_4 > 0
tt - t_2_4 - 2000.000000 s_2_4 > -1982.288100
tt + 2000 s_1_5 > 0
tt - t_1_5 - 2035.067200 s_1_5 + 35.067200 s_1_4 > -1999.276860
tt + 2000 s_2_5 > 0
tt - t_2_5 - 2070.134400 s_2_5 + 70.134400 s_2_4 > -1998.251900
s_1_1 + s_2_1  = 1
s_1_2 + s_2_2  = 1
s_1_3 + s_2_3  = 1
s_1_4 + s_2_4  = 1
s_1_5 + s_2_5  = 1
t_1_1 - t_1_2 + 2000.000000 u_1_1_2 > 3.168660
t_1_2 - t_1_1 - 2000.000000 u_1_1_2 > -1994.650810
t_2_1 - t_2_2 + 2000.000000 u_2_1_2 > 6.193700
t_2_2 - t_2_1 - 2000.000000 u_2_1_2 > -1989.268500
t_1_1 - t_1_3 + 2000.000000 u_1_1_3 > 1.777600
t_1_3 - t_1_1 - 2000.000000 u_1_1_3 > -1994.650810
t_2_1 - t_2_3 + 2000.000000 u_2_1_3 > 3.468800
t_2_3 - t_2_1 - 2000.000000 u_2_1_3 > -1989.268500
t_1_1 - t_1_4 + 2000.000000 u_1_1_4 > 10.933010
t_1_4 - t_1_1 - 2000.000000 u_1_1_4 > -1994.650810
t_2_1 - t_2_4 + 2000.000000 u_2_1_4 > 17.711900
t_2_4 - t_2_1 - 2000.000000 u_2_1_4 > -1989.268500
t_1_5 - t_1_1 - 2000.000000 s_1_1 > -1992.150810
t_1_5 - t_2_1 - 2000.000000 s_2_1 > -1984.268500
t_2_5 - t_1_1 - 2000.000000 s_1_1 > -1992.150810
t_2_5 - t_2_1 - 2000.000000 s_2_1 > -1984.268500
t_1_2 - t_1_1 + 2000.000000 u_1_2_1 > 5.349190
t_1_1 - t_1_2 - 2000.000000 u_1_2_1 > -1996.831340
t_2_2 - t_2_1 + 2000.000000 u_2_2_1 > 10.731500
t_2_1 - t_2_2 - 2000.000000 u_2_2_1 > -1993.806300
t_1_2 - t_1_3 + 2000.000000 u_1_2_3 > 1.777600
t_1_3 - t_1_2 - 2000.000000 u_1_2_3 > -1996.831340
t_2_2 - t_2_3 + 2000.000000 u_2_2_3 > 3.468800
t_2_3 - t_2_2 - 2000.000000 u_2_2_3 > -1993.806300
t_1_2 - t_1_4 + 2000.000000 u_1_2_4 > 10.933010
t_1_4 - t_1_2 - 2000.000000 u_1_2_4 > -1996.831340
t_2_2 - t_2_4 + 2000.000000 u_2_2_4 > 17.711900
t_2_4 - t_2_2 - 2000.000000 u_2_2_4 > -1993.806300
t_1_5 - t_1_2 - 2000.000000 s_1_2 > -1994.331340
t_1_5 - t_2_2 - 2000.000000 s_2_2 > -1988.806300
t_2_5 - t_1_2 - 2000.000000 s_1_2 > -1994.331340
t_2_5 - t_2_2 - 2000.000000 s_2_2 > -1988.806300
t_1_3 - t_1_1 + 2000.000000 u_1_3_1 > 5.349190
t_1_1 - t_1_3 - 2000.000000 u_1_3_1 > -1998.222400
t_2_3 - t_2_1 + 2000.000000 u_2_3_1 > 10.731500
t_2_1 - t_2_3 - 2000.000000 u_2_3_1 > -1996.531200
t_1_3 - t_1_2 + 2000.000000 u_1_3_2 > 3.168660
t_1_2 - t_1_3 - 2000.000000 u_1_3_2 > -1998.222400
t_2_3 - t_2_2 + 2000.000000 u_2_3_2 > 6.193700
t_2_2 - t_2_3 - 2000.000000 u_2_3_2 > -1996.531200
t_1_3 - t_1_4 + 2000.000000 u_1_3_4 > 10.933010
t_1_4 - t_1_3 - 2000.000000 u_1_3_4 > -1998.222400
t_2_3 - t_2_4 + 2000.000000 u_2_3_4 > 17.711900
t_2_4 - t_2_3 - 2000.000000 u_2_3_4 > -1996.531200
t_1_5 - t_1_3 - 2000.000000 s_1_3 > -1995.722400
t_1_5 - t_2_3 - 2000.000000 s_2_3 > -1991.531200
t_2_5 - t_1_3 - 2000.000000 s_1_3 > -1995.722400
t_2_5 - t_2_3 - 2000.000000 s_2_3 > -1991.531200
t_1_4 - t_1_1 + 2000.000000 u_1_4_1 > 5.349190
t_1_1 - t_1_4 - 2000.000000 u_1_4_1 > -1989.066990
t_2_4 - t_2_1 + 2000.000000 u_2_4_1 > 10.731500
t_2_1 - t_2_4 - 2000.000000 u_2_4_1 > -1982.288100
t_1_4 - t_1_2 + 2000.000000 u_1_4_2 > 3.168660
t_1_2 - t_1_4 - 2000.000000 u_1_4_2 > -1989.066990
t_2_4 - t_2_2 + 2000.000000 u_2_4_2 > 6.193700
t_2_2 - t_2_4 - 2000.000000 u_2_4_2 > -1982.288100
t_1_4 - t_1_3 + 2000.000000 u_1_4_3 > 1.777600
t_1_3 - t_1_4 - 2000.000000 u_1_4_3 > -1989.066990
t_2_4 - t_2_3 + 2000.000000 u_2_4_3 > 3.468800
t_2_3 - t_2_4 - 2000.000000 u_2_4_3 > -1982.288100
t_1_5 - t_1_4 - 2000.000000 s_1_4 > -1986.566990
t_1_5 - t_2_4 - 2000.000000 s_2_4 > -1977.288100
t_2_5 - t_1_4 - 2000.000000 s_1_4 > -1986.566990
t_2_5 - t_2_4 - 2000.000000 s_2_4 > -1977.288100
t_1_5 - t_1_1 - 2000.000000 s_1_1 > -1992.150810
t_1_5 - t_2_1 - 2000.000000 s_2_1 > -1984.268500
t_2_5 - t_1_1 - 2000.000000 s_1_1 > -1992.150810
t_2_5 - t_2_1 - 2000.000000 s_2_1 > -1984.268500
t_1_5 - t_1_2 - 2000.000000 s_1_2 > -1994.331340
t_1_5 - t_2_2 - 2000.000000 s_2_2 > -1988.806300
t_2_5 - t_1_2 - 2000.000000 s_1_2 > -1994.331340
t_2_5 - t_2_2 - 2000.000000 s_2_2 > -1988.806300
t_1_5 - t_1_3 - 2000.000000 s_1_3 > -1995.722400
t_1_5 - t_2_3 - 2000.000000 s_2_3 > -1991.531200
t_2_5 - t_1_3 - 2000.000000 s_1_3 > -1995.722400
t_2_5 - t_2_3 - 2000.000000 s_2_3 > -1991.531200
t_1_5 - t_1_4 - 2000.000000 s_1_4 > -1986.566990
t_1_5 - t_2_4 - 2000.000000 s_2_4 > -1977.288100
t_2_5 - t_1_4 - 2000.000000 s_1_4 > -1986.566990
t_2_5 - t_2_4 - 2000.000000 s_2_4 > -1977.288100
Binary
s_1_1
s_2_1
s_1_2
s_2_2
s_1_3
s_2_3
s_1_4
s_2_4
s_1_5
s_2_5
u_1_1_2
u_2_1_2
u_1_1_3
u_2_1_3
u_1_1_4
u_2_1_4
u_1_2_1
u_2_2_1
u_1_2_3
u_2_2_3
u_1_2_4
u_2_2_4
u_1_3_1
u_2_3_1
u_1_3_2
u_2_3_2
u_1_3_4
u_2_3_4
u_1_4_1
u_2_4_1
u_1_4_2
u_2_4_2
u_1_4_3
u_2_4_3

End
